p cnf 18 13
3 1 -9 -10 -16 -15 -17 7 6 -11 -4 -14 13 5 8 0
-8 -17 0
14 -5 6 0
-18 9 -8 -1 6 14 -3 5 -13 16 2 12 -10 -15 -4 0
-7 18 2 1 13 10 -8 -6 11 0
10 12 7 -4 0
-2 -10 12 0
-5 -13 -2 0
7 -10 14 -12 4 6 0
7 6 0
6 -7 -9 3 0
5 -6 16 -3 0
15 16 -8 6 -17 -14 3 10 11 0
